p cnf 336 1125
1 2 3 0
-73 0
-1 74 0
-2 74 0
-1 -2 75 0
-3 76 0
-73 76 0
-3 -73 77 0
-74 78 0
-76 78 0
-74 -76 79 0
-75 80 0
-77 80 0
-75 -77 81 0
-79 82 0
-80 82 0
-79 -80 83 0
-82 0
19 20 21 0
-84 0
-19 85 0
-20 85 0
-19 -20 86 0
-21 87 0
-84 87 0
-21 -84 88 0
-85 89 0
-87 89 0
-85 -87 90 0
-86 91 0
-88 91 0
-86 -88 92 0
-90 93 0
-91 93 0
-90 -91 94 0
-93 0
37 38 39 0
-95 0
-37 96 0
-38 96 0
-37 -38 97 0
-39 98 0
-95 98 0
-39 -95 99 0
-96 100 0
-98 100 0
-96 -98 101 0
-97 102 0
-99 102 0
-97 -99 103 0
-101 104 0
-102 104 0
-101 -102 105 0
-104 0
55 56 57 0
-106 0
-55 107 0
-56 107 0
-55 -56 108 0
-57 109 0
-106 109 0
-57 -106 110 0
-107 111 0
-109 111 0
-107 -109 112 0
-108 113 0
-110 113 0
-108 -110 114 0
-112 115 0
-113 115 0
-112 -113 116 0
-115 0
4 5 6 0
-117 0
-4 118 0
-5 118 0
-4 -5 119 0
-6 120 0
-117 120 0
-6 -117 121 0
-118 122 0
-120 122 0
-118 -120 123 0
-119 124 0
-121 124 0
-119 -121 125 0
-123 126 0
-124 126 0
-123 -124 127 0
-126 0
22 23 24 0
-128 0
-22 129 0
-23 129 0
-22 -23 130 0
-24 131 0
-128 131 0
-24 -128 132 0
-129 133 0
-131 133 0
-129 -131 134 0
-130 135 0
-132 135 0
-130 -132 136 0
-134 137 0
-135 137 0
-134 -135 138 0
-137 0
40 41 42 0
-139 0
-40 140 0
-41 140 0
-40 -41 141 0
-42 142 0
-139 142 0
-42 -139 143 0
-140 144 0
-142 144 0
-140 -142 145 0
-141 146 0
-143 146 0
-141 -143 147 0
-145 148 0
-146 148 0
-145 -146 149 0
-148 0
58 59 60 0
-150 0
-58 151 0
-59 151 0
-58 -59 152 0
-60 153 0
-150 153 0
-60 -150 154 0
-151 155 0
-153 155 0
-151 -153 156 0
-152 157 0
-154 157 0
-152 -154 158 0
-156 159 0
-157 159 0
-156 -157 160 0
-159 0
7 8 9 0
-161 0
-7 162 0
-8 162 0
-7 -8 163 0
-9 164 0
-161 164 0
-9 -161 165 0
-162 166 0
-164 166 0
-162 -164 167 0
-163 168 0
-165 168 0
-163 -165 169 0
-167 170 0
-168 170 0
-167 -168 171 0
-170 0
25 26 27 0
-172 0
-25 173 0
-26 173 0
-25 -26 174 0
-27 175 0
-172 175 0
-27 -172 176 0
-173 177 0
-175 177 0
-173 -175 178 0
-174 179 0
-176 179 0
-174 -176 180 0
-178 181 0
-179 181 0
-178 -179 182 0
-181 0
43 44 45 0
-183 0
-43 184 0
-44 184 0
-43 -44 185 0
-45 186 0
-183 186 0
-45 -183 187 0
-184 188 0
-186 188 0
-184 -186 189 0
-185 190 0
-187 190 0
-185 -187 191 0
-189 192 0
-190 192 0
-189 -190 193 0
-192 0
61 62 63 0
-194 0
-61 195 0
-62 195 0
-61 -62 196 0
-63 197 0
-194 197 0
-63 -194 198 0
-195 199 0
-197 199 0
-195 -197 200 0
-196 201 0
-198 201 0
-196 -198 202 0
-200 203 0
-201 203 0
-200 -201 204 0
-203 0
10 11 12 0
-205 0
-10 206 0
-11 206 0
-10 -11 207 0
-12 208 0
-205 208 0
-12 -205 209 0
-206 210 0
-208 210 0
-206 -208 211 0
-207 212 0
-209 212 0
-207 -209 213 0
-211 214 0
-212 214 0
-211 -212 215 0
-214 0
28 29 30 0
-216 0
-28 217 0
-29 217 0
-28 -29 218 0
-30 219 0
-216 219 0
-30 -216 220 0
-217 221 0
-219 221 0
-217 -219 222 0
-218 223 0
-220 223 0
-218 -220 224 0
-222 225 0
-223 225 0
-222 -223 226 0
-225 0
46 47 48 0
-227 0
-46 228 0
-47 228 0
-46 -47 229 0
-48 230 0
-227 230 0
-48 -227 231 0
-228 232 0
-230 232 0
-228 -230 233 0
-229 234 0
-231 234 0
-229 -231 235 0
-233 236 0
-234 236 0
-233 -234 237 0
-236 0
64 65 66 0
-238 0
-64 239 0
-65 239 0
-64 -65 240 0
-66 241 0
-238 241 0
-66 -238 242 0
-239 243 0
-241 243 0
-239 -241 244 0
-240 245 0
-242 245 0
-240 -242 246 0
-244 247 0
-245 247 0
-244 -245 248 0
-247 0
13 14 15 0
-249 0
-13 250 0
-14 250 0
-13 -14 251 0
-15 252 0
-249 252 0
-15 -249 253 0
-250 254 0
-252 254 0
-250 -252 255 0
-251 256 0
-253 256 0
-251 -253 257 0
-255 258 0
-256 258 0
-255 -256 259 0
-258 0
31 32 33 0
-260 0
-31 261 0
-32 261 0
-31 -32 262 0
-33 263 0
-260 263 0
-33 -260 264 0
-261 265 0
-263 265 0
-261 -263 266 0
-262 267 0
-264 267 0
-262 -264 268 0
-266 269 0
-267 269 0
-266 -267 270 0
-269 0
49 50 51 0
-271 0
-49 272 0
-50 272 0
-49 -50 273 0
-51 274 0
-271 274 0
-51 -271 275 0
-272 276 0
-274 276 0
-272 -274 277 0
-273 278 0
-275 278 0
-273 -275 279 0
-277 280 0
-278 280 0
-277 -278 281 0
-280 0
67 68 69 0
-282 0
-67 283 0
-68 283 0
-67 -68 284 0
-69 285 0
-282 285 0
-69 -282 286 0
-283 287 0
-285 287 0
-283 -285 288 0
-284 289 0
-286 289 0
-284 -286 290 0
-288 291 0
-289 291 0
-288 -289 292 0
-291 0
16 17 18 0
-293 0
-16 294 0
-17 294 0
-16 -17 295 0
-18 296 0
-293 296 0
-18 -293 297 0
-294 298 0
-296 298 0
-294 -296 299 0
-295 300 0
-297 300 0
-295 -297 301 0
-299 302 0
-300 302 0
-299 -300 303 0
-302 0
34 35 36 0
-304 0
-34 305 0
-35 305 0
-34 -35 306 0
-36 307 0
-304 307 0
-36 -304 308 0
-305 309 0
-307 309 0
-305 -307 310 0
-306 311 0
-308 311 0
-306 -308 312 0
-310 313 0
-311 313 0
-310 -311 314 0
-313 0
52 53 54 0
-315 0
-52 316 0
-53 316 0
-52 -53 317 0
-54 318 0
-315 318 0
-54 -315 319 0
-316 320 0
-318 320 0
-316 -318 321 0
-317 322 0
-319 322 0
-317 -319 323 0
-321 324 0
-322 324 0
-321 -322 325 0
-324 0
70 71 72 0
-326 0
-70 327 0
-71 327 0
-70 -71 328 0
-72 329 0
-326 329 0
-72 -326 330 0
-327 331 0
-329 331 0
-327 -329 332 0
-328 333 0
-330 333 0
-328 -330 334 0
-332 335 0
-333 335 0
-332 -333 336 0
-335 0
-1 -19 -55 5 0
-1 -20 -55 5 0
-1 -21 -55 5 0
-1 -19 -56 5 0
-1 -20 -56 5 0
-1 -21 -56 5 0
-1 -19 -57 5 0
-1 -20 -57 5 0
-1 -21 -57 5 0
-2 -19 -55 5 0
-2 -20 -55 5 0
-2 -21 -55 5 0
-2 -19 -56 5 0
-2 -20 -56 6 0
-2 -21 -56 6 0
-2 -19 -57 5 0
-2 -20 -57 6 0
-2 -21 -57 6 0
-3 -19 -55 5 0
-3 -20 -55 5 0
-3 -21 -55 5 0
-3 -19 -56 5 0
-3 -20 -56 6 0
-3 -21 -56 6 0
-3 -19 -57 5 0
-3 -20 -57 6 0
-3 -21 -57 4 0
-19 -1 -37 23 0
-19 -2 -37 23 0
-19 -3 -37 23 0
-19 -1 -38 23 0
-19 -2 -38 23 0
-19 -3 -38 23 0
-19 -1 -39 23 0
-19 -2 -39 23 0
-19 -3 -39 23 0
-20 -1 -37 23 0
-20 -2 -37 23 0
-20 -3 -37 23 0
-20 -1 -38 23 0
-20 -2 -38 24 0
-20 -3 -38 24 0
-20 -1 -39 23 0
-20 -2 -39 24 0
-20 -3 -39 24 0
-21 -1 -37 23 0
-21 -2 -37 23 0
-21 -3 -37 23 0
-21 -1 -38 23 0
-21 -2 -38 24 0
-21 -3 -38 24 0
-21 -1 -39 23 0
-21 -2 -39 24 0
-21 -3 -39 22 0
-37 -19 -55 41 0
-37 -20 -55 41 0
-37 -21 -55 41 0
-37 -19 -56 41 0
-37 -20 -56 41 0
-37 -21 -56 41 0
-37 -19 -57 41 0
-37 -20 -57 41 0
-37 -21 -57 41 0
-38 -19 -55 41 0
-38 -20 -55 41 0
-38 -21 -55 41 0
-38 -19 -56 41 0
-38 -20 -56 42 0
-38 -21 -56 42 0
-38 -19 -57 41 0
-38 -20 -57 42 0
-38 -21 -57 42 0
-39 -19 -55 41 0
-39 -20 -55 41 0
-39 -21 -55 41 0
-39 -19 -56 41 0
-39 -20 -56 42 0
-39 -21 -56 42 0
-39 -19 -57 41 0
-39 -20 -57 42 0
-39 -21 -57 40 0
-55 -1 -37 59 0
-55 -2 -37 59 0
-55 -3 -37 59 0
-55 -1 -38 59 0
-55 -2 -38 59 0
-55 -3 -38 59 0
-55 -1 -39 59 0
-55 -2 -39 59 0
-55 -3 -39 59 0
-56 -1 -37 59 0
-56 -2 -37 59 0
-56 -3 -37 59 0
-56 -1 -38 59 0
-56 -2 -38 60 0
-56 -3 -38 60 0
-56 -1 -39 59 0
-56 -2 -39 60 0
-56 -3 -39 60 0
-57 -1 -37 59 0
-57 -2 -37 59 0
-57 -3 -37 59 0
-57 -1 -38 59 0
-57 -2 -38 60 0
-57 -3 -38 60 0
-57 -1 -39 59 0
-57 -2 -39 60 0
-57 -3 -39 58 0
-4 -22 -58 8 0
-4 -23 -58 8 0
-4 -24 -58 8 0
-4 -22 -59 8 0
-4 -23 -59 8 0
-4 -24 -59 8 0
-4 -22 -60 8 0
-4 -23 -60 8 0
-4 -24 -60 8 0
-5 -22 -58 8 0
-5 -23 -58 8 0
-5 -24 -58 8 0
-5 -22 -59 8 0
-5 -23 -59 9 0
-5 -24 -59 9 0
-5 -22 -60 8 0
-5 -23 -60 9 0
-5 -24 -60 9 0
-6 -22 -58 8 0
-6 -23 -58 8 0
-6 -24 -58 8 0
-6 -22 -59 8 0
-6 -23 -59 9 0
-6 -24 -59 9 0
-6 -22 -60 8 0
-6 -23 -60 9 0
-6 -24 -60 7 0
-22 -4 -40 26 0
-22 -5 -40 26 0
-22 -6 -40 26 0
-22 -4 -41 26 0
-22 -5 -41 26 0
-22 -6 -41 26 0
-22 -4 -42 26 0
-22 -5 -42 26 0
-22 -6 -42 26 0
-23 -4 -40 26 0
-23 -5 -40 26 0
-23 -6 -40 26 0
-23 -4 -41 26 0
-23 -5 -41 27 0
-23 -6 -41 27 0
-23 -4 -42 26 0
-23 -5 -42 27 0
-23 -6 -42 27 0
-24 -4 -40 26 0
-24 -5 -40 26 0
-24 -6 -40 26 0
-24 -4 -41 26 0
-24 -5 -41 27 0
-24 -6 -41 27 0
-24 -4 -42 26 0
-24 -5 -42 27 0
-24 -6 -42 25 0
-40 -22 -58 44 0
-40 -23 -58 44 0
-40 -24 -58 44 0
-40 -22 -59 44 0
-40 -23 -59 44 0
-40 -24 -59 44 0
-40 -22 -60 44 0
-40 -23 -60 44 0
-40 -24 -60 44 0
-41 -22 -58 44 0
-41 -23 -58 44 0
-41 -24 -58 44 0
-41 -22 -59 44 0
-41 -23 -59 45 0
-41 -24 -59 45 0
-41 -22 -60 44 0
-41 -23 -60 45 0
-41 -24 -60 45 0
-42 -22 -58 44 0
-42 -23 -58 44 0
-42 -24 -58 44 0
-42 -22 -59 44 0
-42 -23 -59 45 0
-42 -24 -59 45 0
-42 -22 -60 44 0
-42 -23 -60 45 0
-42 -24 -60 43 0
-58 -4 -40 62 0
-58 -5 -40 62 0
-58 -6 -40 62 0
-58 -4 -41 62 0
-58 -5 -41 62 0
-58 -6 -41 62 0
-58 -4 -42 62 0
-58 -5 -42 62 0
-58 -6 -42 62 0
-59 -4 -40 62 0
-59 -5 -40 62 0
-59 -6 -40 62 0
-59 -4 -41 62 0
-59 -5 -41 63 0
-59 -6 -41 63 0
-59 -4 -42 62 0
-59 -5 -42 63 0
-59 -6 -42 63 0
-60 -4 -40 62 0
-60 -5 -40 62 0
-60 -6 -40 62 0
-60 -4 -41 62 0
-60 -5 -41 63 0
-60 -6 -41 63 0
-60 -4 -42 62 0
-60 -5 -42 63 0
-60 -6 -42 61 0
-7 -25 -61 11 0
-7 -26 -61 11 0
-7 -27 -61 11 0
-7 -25 -62 11 0
-7 -26 -62 11 0
-7 -27 -62 11 0
-7 -25 -63 11 0
-7 -26 -63 11 0
-7 -27 -63 11 0
-8 -25 -61 11 0
-8 -26 -61 11 0
-8 -27 -61 11 0
-8 -25 -62 11 0
-8 -26 -62 12 0
-8 -27 -62 12 0
-8 -25 -63 11 0
-8 -26 -63 12 0
-8 -27 -63 12 0
-9 -25 -61 11 0
-9 -26 -61 11 0
-9 -27 -61 11 0
-9 -25 -62 11 0
-9 -26 -62 12 0
-9 -27 -62 12 0
-9 -25 -63 11 0
-9 -26 -63 12 0
-9 -27 -63 10 0
-25 -7 -43 29 0
-25 -8 -43 29 0
-25 -9 -43 29 0
-25 -7 -44 29 0
-25 -8 -44 29 0
-25 -9 -44 29 0
-25 -7 -45 29 0
-25 -8 -45 29 0
-25 -9 -45 29 0
-26 -7 -43 29 0
-26 -8 -43 29 0
-26 -9 -43 29 0
-26 -7 -44 29 0
-26 -8 -44 30 0
-26 -9 -44 30 0
-26 -7 -45 29 0
-26 -8 -45 30 0
-26 -9 -45 30 0
-27 -7 -43 29 0
-27 -8 -43 29 0
-27 -9 -43 29 0
-27 -7 -44 29 0
-27 -8 -44 30 0
-27 -9 -44 30 0
-27 -7 -45 29 0
-27 -8 -45 30 0
-27 -9 -45 28 0
-43 -25 -61 47 0
-43 -26 -61 47 0
-43 -27 -61 47 0
-43 -25 -62 47 0
-43 -26 -62 47 0
-43 -27 -62 47 0
-43 -25 -63 47 0
-43 -26 -63 47 0
-43 -27 -63 47 0
-44 -25 -61 47 0
-44 -26 -61 47 0
-44 -27 -61 47 0
-44 -25 -62 47 0
-44 -26 -62 48 0
-44 -27 -62 48 0
-44 -25 -63 47 0
-44 -26 -63 48 0
-44 -27 -63 48 0
-45 -25 -61 47 0
-45 -26 -61 47 0
-45 -27 -61 47 0
-45 -25 -62 47 0
-45 -26 -62 48 0
-45 -27 -62 48 0
-45 -25 -63 47 0
-45 -26 -63 48 0
-45 -27 -63 46 0
-61 -7 -43 65 0
-61 -8 -43 65 0
-61 -9 -43 65 0
-61 -7 -44 65 0
-61 -8 -44 65 0
-61 -9 -44 65 0
-61 -7 -45 65 0
-61 -8 -45 65 0
-61 -9 -45 65 0
-62 -7 -43 65 0
-62 -8 -43 65 0
-62 -9 -43 65 0
-62 -7 -44 65 0
-62 -8 -44 66 0
-62 -9 -44 66 0
-62 -7 -45 65 0
-62 -8 -45 66 0
-62 -9 -45 66 0
-63 -7 -43 65 0
-63 -8 -43 65 0
-63 -9 -43 65 0
-63 -7 -44 65 0
-63 -8 -44 66 0
-63 -9 -44 66 0
-63 -7 -45 65 0
-63 -8 -45 66 0
-63 -9 -45 64 0
-10 -28 -64 14 0
-10 -29 -64 14 0
-10 -30 -64 14 0
-10 -28 -65 14 0
-10 -29 -65 14 0
-10 -30 -65 14 0
-10 -28 -66 14 0
-10 -29 -66 14 0
-10 -30 -66 14 0
-11 -28 -64 14 0
-11 -29 -64 14 0
-11 -30 -64 14 0
-11 -28 -65 14 0
-11 -29 -65 15 0
-11 -30 -65 15 0
-11 -28 -66 14 0
-11 -29 -66 15 0
-11 -30 -66 15 0
-12 -28 -64 14 0
-12 -29 -64 14 0
-12 -30 -64 14 0
-12 -28 -65 14 0
-12 -29 -65 15 0
-12 -30 -65 15 0
-12 -28 -66 14 0
-12 -29 -66 15 0
-12 -30 -66 13 0
-28 -10 -46 32 0
-28 -11 -46 32 0
-28 -12 -46 32 0
-28 -10 -47 32 0
-28 -11 -47 32 0
-28 -12 -47 32 0
-28 -10 -48 32 0
-28 -11 -48 32 0
-28 -12 -48 32 0
-29 -10 -46 32 0
-29 -11 -46 32 0
-29 -12 -46 32 0
-29 -10 -47 32 0
-29 -11 -47 33 0
-29 -12 -47 33 0
-29 -10 -48 32 0
-29 -11 -48 33 0
-29 -12 -48 33 0
-30 -10 -46 32 0
-30 -11 -46 32 0
-30 -12 -46 32 0
-30 -10 -47 32 0
-30 -11 -47 33 0
-30 -12 -47 33 0
-30 -10 -48 32 0
-30 -11 -48 33 0
-30 -12 -48 31 0
-46 -28 -64 50 0
-46 -29 -64 50 0
-46 -30 -64 50 0
-46 -28 -65 50 0
-46 -29 -65 50 0
-46 -30 -65 50 0
-46 -28 -66 50 0
-46 -29 -66 50 0
-46 -30 -66 50 0
-47 -28 -64 50 0
-47 -29 -64 50 0
-47 -30 -64 50 0
-47 -28 -65 50 0
-47 -29 -65 51 0
-47 -30 -65 51 0
-47 -28 -66 50 0
-47 -29 -66 51 0
-47 -30 -66 51 0
-48 -28 -64 50 0
-48 -29 -64 50 0
-48 -30 -64 50 0
-48 -28 -65 50 0
-48 -29 -65 51 0
-48 -30 -65 51 0
-48 -28 -66 50 0
-48 -29 -66 51 0
-48 -30 -66 49 0
-64 -10 -46 68 0
-64 -11 -46 68 0
-64 -12 -46 68 0
-64 -10 -47 68 0
-64 -11 -47 68 0
-64 -12 -47 68 0
-64 -10 -48 68 0
-64 -11 -48 68 0
-64 -12 -48 68 0
-65 -10 -46 68 0
-65 -11 -46 68 0
-65 -12 -46 68 0
-65 -10 -47 68 0
-65 -11 -47 69 0
-65 -12 -47 69 0
-65 -10 -48 68 0
-65 -11 -48 69 0
-65 -12 -48 69 0
-66 -10 -46 68 0
-66 -11 -46 68 0
-66 -12 -46 68 0
-66 -10 -47 68 0
-66 -11 -47 69 0
-66 -12 -47 69 0
-66 -10 -48 68 0
-66 -11 -48 69 0
-66 -12 -48 67 0
-13 -31 -67 17 0
-13 -32 -67 17 0
-13 -33 -67 17 0
-13 -31 -68 17 0
-13 -32 -68 17 0
-13 -33 -68 17 0
-13 -31 -69 17 0
-13 -32 -69 17 0
-13 -33 -69 17 0
-14 -31 -67 17 0
-14 -32 -67 17 0
-14 -33 -67 17 0
-14 -31 -68 17 0
-14 -32 -68 18 0
-14 -33 -68 18 0
-14 -31 -69 17 0
-14 -32 -69 18 0
-14 -33 -69 18 0
-15 -31 -67 17 0
-15 -32 -67 17 0
-15 -33 -67 17 0
-15 -31 -68 17 0
-15 -32 -68 18 0
-15 -33 -68 18 0
-15 -31 -69 17 0
-15 -32 -69 18 0
-15 -33 -69 16 0
-31 -13 -49 35 0
-31 -14 -49 35 0
-31 -15 -49 35 0
-31 -13 -50 35 0
-31 -14 -50 35 0
-31 -15 -50 35 0
-31 -13 -51 35 0
-31 -14 -51 35 0
-31 -15 -51 35 0
-32 -13 -49 35 0
-32 -14 -49 35 0
-32 -15 -49 35 0
-32 -13 -50 35 0
-32 -14 -50 36 0
-32 -15 -50 36 0
-32 -13 -51 35 0
-32 -14 -51 36 0
-32 -15 -51 36 0
-33 -13 -49 35 0
-33 -14 -49 35 0
-33 -15 -49 35 0
-33 -13 -50 35 0
-33 -14 -50 36 0
-33 -15 -50 36 0
-33 -13 -51 35 0
-33 -14 -51 36 0
-33 -15 -51 34 0
-49 -31 -67 53 0
-49 -32 -67 53 0
-49 -33 -67 53 0
-49 -31 -68 53 0
-49 -32 -68 53 0
-49 -33 -68 53 0
-49 -31 -69 53 0
-49 -32 -69 53 0
-49 -33 -69 53 0
-50 -31 -67 53 0
-50 -32 -67 53 0
-50 -33 -67 53 0
-50 -31 -68 53 0
-50 -32 -68 54 0
-50 -33 -68 54 0
-50 -31 -69 53 0
-50 -32 -69 54 0
-50 -33 -69 54 0
-51 -31 -67 53 0
-51 -32 -67 53 0
-51 -33 -67 53 0
-51 -31 -68 53 0
-51 -32 -68 54 0
-51 -33 -68 54 0
-51 -31 -69 53 0
-51 -32 -69 54 0
-51 -33 -69 52 0
-67 -13 -49 71 0
-67 -14 -49 71 0
-67 -15 -49 71 0
-67 -13 -50 71 0
-67 -14 -50 71 0
-67 -15 -50 71 0
-67 -13 -51 71 0
-67 -14 -51 71 0
-67 -15 -51 71 0
-68 -13 -49 71 0
-68 -14 -49 71 0
-68 -15 -49 71 0
-68 -13 -50 71 0
-68 -14 -50 72 0
-68 -15 -50 72 0
-68 -13 -51 71 0
-68 -14 -51 72 0
-68 -15 -51 72 0
-69 -13 -49 71 0
-69 -14 -49 71 0
-69 -15 -49 71 0
-69 -13 -50 71 0
-69 -14 -50 72 0
-69 -15 -50 72 0
-69 -13 -51 71 0
-69 -14 -51 72 0
-69 -15 -51 70 0
74 75 76 77 78 0
82 83 84 -74 0
1 -82 0
4 -82 0
2 -83 0
5 -83 0
3 -84 0
6 -84 0
100 101 102 -74 0
19 -100 0
22 -100 0
20 -101 0
23 -101 0
21 -102 0
24 -102 0
118 119 120 -74 0
37 -118 0
40 -118 0
38 -119 0
41 -119 0
39 -120 0
42 -120 0
136 137 138 -74 0
55 -136 0
58 -136 0
56 -137 0
59 -137 0
57 -138 0
60 -138 0
85 86 87 -75 0
1 -85 0
7 -85 0
2 -86 0
8 -86 0
3 -87 0
9 -87 0
103 104 105 -75 0
19 -103 0
25 -103 0
20 -104 0
26 -104 0
21 -105 0
27 -105 0
121 122 123 -75 0
37 -121 0
43 -121 0
38 -122 0
44 -122 0
39 -123 0
45 -123 0
139 140 141 -75 0
55 -139 0
61 -139 0
56 -140 0
62 -140 0
57 -141 0
63 -141 0
88 89 90 -76 0
1 -88 0
10 -88 0
2 -89 0
11 -89 0
3 -90 0
12 -90 0
106 107 108 -76 0
19 -106 0
28 -106 0
20 -107 0
29 -107 0
21 -108 0
30 -108 0
124 125 126 -76 0
37 -124 0
46 -124 0
38 -125 0
47 -125 0
39 -126 0
48 -126 0
142 143 144 -76 0
55 -142 0
64 -142 0
56 -143 0
65 -143 0
57 -144 0
66 -144 0
91 92 93 -77 0
1 -91 0
13 -91 0
2 -92 0
14 -92 0
3 -93 0
15 -93 0
109 110 111 -77 0
19 -109 0
31 -109 0
20 -110 0
32 -110 0
21 -111 0
33 -111 0
127 128 129 -77 0
37 -127 0
49 -127 0
38 -128 0
50 -128 0
39 -129 0
51 -129 0
145 146 147 -77 0
55 -145 0
67 -145 0
56 -146 0
68 -146 0
57 -147 0
69 -147 0
94 95 96 -78 0
1 -94 0
16 -94 0
2 -95 0
17 -95 0
3 -96 0
18 -96 0
112 113 114 -78 0
19 -112 0
34 -112 0
20 -113 0
35 -113 0
21 -114 0
36 -114 0
130 131 132 -78 0
37 -130 0
52 -130 0
38 -131 0
53 -131 0
39 -132 0
54 -132 0
148 149 150 -78 0
55 -148 0
70 -148 0
56 -149 0
71 -149 0
57 -150 0
72 -150 0
-1 -19 -37 -55 0
-2 -20 -38 -56 0
-3 -21 -39 -57 0
-19 -2 0
-37 -2 0
-55 -2 0
-19 -3 0
-37 -3 0
-55 -3 0
-20 -3 0
-38 -3 0
-56 -3 0
